DIMENSION: 24
EDGE_WEIGHT_TYPE: EXPLICIT
EDGE_WEIGHT_FORMAT: FULL_MATRIX
EDGE_WEIGHT_SECTION:
32767 32767 32767 32767 32767 32767 95 32767 32767 32767 58 10 32767 32767 32767 32767 37 33 37 32767 32767 32767 32767 74 
32767 32767 58 32767 32767 32767 32767 32767 32767 32767 32767 10 32767 19 32767 32767 32767 32767 32767 8 32767 97 32767 32767 
32767 58 32767 82 62 28 45 32767 32767 32767 32767 32767 32767 32767 32767 49 32767 100 64 32767 32767 32767 35 32767 
32767 32767 82 32767 32767 32767 32767 32767 32767 32767 56 22 32767 32767 32767 32767 32767 59 52 32767 32767 32767 32767 23 
32767 32767 62 32767 32767 7 32767 94 66 32767 32767 27 32767 32767 31 32767 63 26 32767 36 8 32767 32767 32767 
32767 32767 28 32767 7 32767 32767 32767 32767 32767 32767 25 32767 90 32767 94 32767 32767 32767 32767 32767 55 32767 32767 
95 32767 45 32767 32767 32767 32767 32767 32767 32767 32767 32767 61 32767 64 32767 81 32767 32767 32767 32767 32767 44 32767 
32767 32767 32767 32767 94 32767 32767 32767 32767 32767 32767 32767 32767 32767 32767 2 32767 32767 32767 7 90 10 32767 32767 
32767 32767 32767 32767 66 32767 32767 32767 32767 32 32767 90 72 32767 32767 32767 32767 47 25 32767 32767 32767 32767 32767 
32767 32767 32767 32767 32767 32767 32767 32767 32 32767 47 32767 32767 64 32767 32767 90 92 32767 32767 32767 32767 32767 16 
58 32767 32767 56 32767 32767 32767 32767 32767 47 32767 20 32767 32767 32767 100 92 32767 43 32767 32767 32767 32767 32767 
10 10 32767 22 27 25 32767 32767 90 32767 20 32767 28 32767 17 32767 32767 32767 32767 32767 32767 32767 20 32767 
32767 32767 32767 32767 32767 32767 61 32767 72 32767 32767 28 32767 32767 67 32767 32767 32767 32767 32767 48 32767 32767 32767 
32767 19 32767 32767 32767 90 32767 32767 32767 64 32767 32767 32767 32767 32767 32767 32767 32767 63 4 71 32767 28 32767 
32767 32767 32767 32767 31 32767 64 32767 32767 32767 32767 17 67 32767 32767 32767 32767 32767 32767 32767 32767 32767 32767 69 
32767 32767 49 32767 32767 94 32767 2 32767 32767 100 32767 32767 32767 32767 32767 32767 32767 32767 5 14 32767 32767 23 
37 32767 32767 32767 63 32767 81 32767 32767 90 92 32767 32767 32767 32767 32767 32767 32767 70 32767 92 74 7 32767 
33 32767 100 59 26 32767 32767 32767 47 92 32767 32767 32767 32767 32767 32767 32767 32767 32767 50 32767 32767 50 32767 
37 32767 64 52 32767 32767 32767 32767 25 32767 43 32767 32767 63 32767 32767 70 32767 32767 32767 32767 32767 26 35 
32767 8 32767 32767 36 32767 32767 7 32767 32767 32767 32767 32767 4 32767 5 32767 50 32767 32767 32767 32767 32767 32767 
32767 32767 32767 32767 8 32767 32767 90 32767 32767 32767 32767 48 71 32767 14 92 32767 32767 32767 32767 32767 32767 32767 
32767 97 32767 32767 32767 55 32767 10 32767 32767 32767 32767 32767 32767 32767 32767 74 32767 32767 32767 32767 32767 32767 13 
32767 32767 35 32767 32767 32767 44 32767 32767 32767 32767 20 32767 28 32767 32767 7 50 26 32767 32767 32767 32767 78 
74 32767 32767 23 32767 32767 32767 32767 32767 16 32767 32767 32767 32767 69 23 32767 32767 35 32767 32767 13 78 32767 
EOF